38.0 46.0 0
59.0 46.0 16
96.0 42.0 18
47.0 61.0 1
26.0 15.0 13
66.0 6.0 8
96.0 7.0 23
37.0 25.0 7
68.0 92.0 27
78.0 84.0 1
82.0 28.0 3
93.0 90.0 6
74.0 42.0 24
60.0 20.0 19
78.0 58.0 2
36.0 48.0 5
45.0 36.0 16
73.0 57.0 7
10.0 91.0 4
98.0 51.0 22
92.0 62.0 7
43.0 42.0 23
53.0 25.0 16
78.0 65.0 2
72.0 79.0 2
37.0 88.0 9
16.0 73.0 2
75.0 96.0 12
11.0 66.0 1
9.0 49.0 9
25.0 72.0 23
8.0 68.0 6
12.0 61.0 19
50.0 2.0 7
26.0 54.0 7
18.0 89.0 20
22.0 53.0 20
